db/data/19451234282363026163056631202524222866.z3.out
-------------------
2500.106044805
